jobs  (incl. supersource/sink ):	52
RESOURCES
- renewable                 : 2 R
- nonrenewable              : 2 N
- doubly constrained        : 0 D
************************************************************************
PRECEDENCE RELATIONS:
jobnr.    #modes  #successors   successors
1	1	16		2 3 4 5 6 8 9 10 11 12 13 14 16 17 28 30 
2	3	16		51 49 46 43 42 41 40 37 35 31 29 26 25 22 21 19 
3	3	6		41 29 24 23 19 7 
4	3	7		51 50 49 44 29 18 15 
5	3	15		49 48 46 45 43 42 41 40 39 38 37 35 29 25 21 
6	3	9		49 46 41 40 37 35 29 26 19 
7	3	13		49 47 46 43 42 40 39 38 37 35 32 31 21 
8	3	10		45 44 43 40 37 35 29 27 25 22 
9	3	6		49 48 44 35 33 15 
10	3	9		48 44 42 40 39 37 35 34 19 
11	3	8		43 42 41 40 37 35 29 19 
12	3	8		48 46 42 41 39 38 34 20 
13	3	8		46 45 39 38 35 29 25 21 
14	3	8		48 41 40 38 36 35 29 25 
15	3	7		43 42 41 37 36 32 26 
16	3	7		48 47 44 41 37 35 29 
17	3	8		49 43 41 40 38 35 34 32 
18	3	6		45 39 35 33 32 31 
19	3	6		50 45 38 36 33 32 
20	3	6		40 37 36 35 33 32 
21	3	4		44 36 34 33 
22	3	4		38 34 33 32 
23	3	4		48 39 35 32 
24	3	4		40 38 37 34 
25	3	3		34 33 32 
26	3	3		47 39 34 
27	3	3		46 42 34 
28	3	3		43 35 32 
29	3	2		33 32 
30	3	2		37 33 
31	3	1		36 
32	3	1		52 
33	3	1		52 
34	3	1		52 
35	3	1		52 
36	3	1		52 
37	3	1		52 
38	3	1		52 
39	3	1		52 
40	3	1		52 
41	3	1		52 
42	3	1		52 
43	3	1		52 
44	3	1		52 
45	3	1		52 
46	3	1		52 
47	3	1		52 
48	3	1		52 
49	3	1		52 
50	3	1		52 
51	3	1		52 
52	1	0		
************************************************************************
REQUESTS/DURATIONS
jobnr.	mode	dur	R1	R2	N1	N2	
------------------------------------------------------------------------
1	1	0	0	0	0	0	
2	1	3	10	9	6	10	
	2	9	9	8	5	10	
	3	10	9	8	3	10	
3	1	4	9	7	6	7	
	2	6	6	7	6	5	
	3	9	5	7	4	5	
4	1	5	4	6	6	5	
	2	7	4	5	5	5	
	3	8	3	4	5	5	
5	1	2	5	10	2	7	
	2	4	4	8	1	7	
	3	5	3	6	1	4	
6	1	3	5	10	8	3	
	2	5	3	9	4	2	
	3	8	3	9	3	2	
7	1	5	8	9	8	7	
	2	8	5	8	6	7	
	3	9	4	6	4	7	
8	1	5	7	4	8	9	
	2	7	5	3	7	4	
	3	8	5	2	6	2	
9	1	3	8	10	9	3	
	2	4	8	7	9	2	
	3	8	8	4	8	1	
10	1	5	4	8	9	8	
	2	6	3	7	7	7	
	3	8	1	5	5	6	
11	1	4	7	8	2	9	
	2	8	6	8	1	8	
	3	10	4	8	1	8	
12	1	1	8	5	9	6	
	2	5	5	3	6	6	
	3	6	5	2	6	6	
13	1	2	6	8	6	1	
	2	4	4	7	4	1	
	3	5	3	6	4	1	
14	1	4	4	7	7	6	
	2	6	4	5	7	5	
	3	9	3	4	7	3	
15	1	3	9	4	8	9	
	2	9	5	4	6	5	
	3	10	5	4	6	4	
16	1	2	7	6	9	9	
	2	5	6	4	8	5	
	3	6	5	4	8	5	
17	1	2	9	9	10	8	
	2	3	7	8	8	6	
	3	5	4	8	8	2	
18	1	1	6	7	6	5	
	2	7	4	7	3	4	
	3	8	1	7	3	4	
19	1	4	9	9	7	5	
	2	7	9	7	6	4	
	3	9	8	6	6	1	
20	1	4	8	7	7	4	
	2	6	7	6	7	4	
	3	8	7	6	7	2	
21	1	2	8	10	8	4	
	2	5	8	6	6	3	
	3	10	5	5	3	2	
22	1	1	8	6	4	5	
	2	9	7	6	4	4	
	3	10	6	4	3	4	
23	1	3	9	6	9	7	
	2	4	6	6	9	7	
	3	8	1	6	9	6	
24	1	3	7	5	6	6	
	2	4	5	4	3	6	
	3	6	2	3	1	4	
25	1	3	2	9	6	5	
	2	6	2	9	5	3	
	3	10	1	9	5	2	
26	1	6	1	6	8	6	
	2	7	1	6	7	6	
	3	10	1	4	4	6	
27	1	3	8	3	8	9	
	2	4	5	3	5	9	
	3	9	2	3	4	9	
28	1	4	9	2	8	2	
	2	7	8	2	8	2	
	3	9	8	2	8	1	
29	1	7	4	5	10	8	
	2	8	2	5	7	6	
	3	9	1	4	5	3	
30	1	1	7	7	10	8	
	2	2	7	6	7	6	
	3	4	7	6	3	6	
31	1	3	10	5	4	7	
	2	9	7	3	4	7	
	3	10	7	3	4	2	
32	1	3	8	1	6	7	
	2	7	7	1	4	5	
	3	9	7	1	4	4	
33	1	1	5	2	10	7	
	2	7	3	1	8	4	
	3	8	2	1	7	4	
34	1	4	6	7	5	5	
	2	8	5	7	5	5	
	3	10	3	7	5	3	
35	1	3	7	6	3	8	
	2	4	6	6	3	5	
	3	7	6	4	3	5	
36	1	2	10	7	8	9	
	2	9	8	6	8	9	
	3	10	7	6	7	9	
37	1	2	2	5	6	2	
	2	9	1	4	6	2	
	3	10	1	3	4	2	
38	1	4	3	5	9	9	
	2	6	2	4	6	9	
	3	7	1	4	5	8	
39	1	2	6	10	7	7	
	2	4	5	8	5	3	
	3	10	3	6	2	3	
40	1	4	4	9	7	7	
	2	6	4	9	6	7	
	3	7	4	8	5	7	
41	1	4	7	4	8	10	
	2	6	6	3	7	9	
	3	7	6	1	5	8	
42	1	1	4	7	5	5	
	2	2	4	5	4	5	
	3	3	3	3	3	5	
43	1	4	8	8	5	7	
	2	6	8	5	3	5	
	3	8	8	2	1	5	
44	1	3	5	4	8	5	
	2	9	5	3	7	3	
	3	10	5	3	6	2	
45	1	3	5	1	8	7	
	2	8	5	1	8	6	
	3	9	5	1	6	6	
46	1	1	7	7	4	7	
	2	9	7	7	3	5	
	3	10	5	6	2	4	
47	1	1	2	8	5	6	
	2	2	1	6	4	4	
	3	3	1	3	4	4	
48	1	6	7	10	9	4	
	2	7	6	8	7	3	
	3	9	6	6	7	2	
49	1	4	7	5	9	7	
	2	8	6	3	6	6	
	3	9	6	2	5	5	
50	1	4	5	3	9	7	
	2	6	3	3	8	5	
	3	9	3	2	8	2	
51	1	3	7	6	8	7	
	2	4	7	6	5	6	
	3	9	7	4	4	3	
52	1	0	0	0	0	0	
************************************************************************

 RESOURCE AVAILABILITIES 
	R 1	R 2	N 1	N 2
	59	63	266	241

************************************************************************
